webassembly/ejemplos_dzn/folder7_json_13.dzn
TERM = { '.', 's(2)', 's(4)', 'in_1', 'in_2', 'in_4', 'in_3', 's(1)', 's(0)', 's(3)', 'in_0'};
null = '.';
s = 7;
n = 10;
ndeps = 2;
max_registers_sz = 3;
NR = 0;
registers = [| |];
dependencies = [|'i32.load16_u_0', 'call[function_index(0)]_6', |'i32.load8_s_4', 'call[function_index(0)]_6'|];
GET_ENUM = { GET1, GET2, GET3};
SET_ENUM = { SET1, SET2, SET3};
TEE_ENUM = { TEE1, TEE2, TEE3};
N = 5;
OP = { 'i32.add_0', 'call[function_index(0)]_6', 'i32.load16_u_0', 'i32.add_1', 'i32.load8_s_4' };
in_ops = [2, 3, 1, 2, 1 ];
out_ops = [1, 1, 1, 1, 1 ];
in1 = ['s(2)', 's(3)', 'in_0', 's(0)', 's(1)' ];
in2 = ['in_2', 'in_3', '.', 'in_1', '.' ];
in3 = ['.', 'in_4', '.', '.', '.' ];
out1 = ['s(3)', 's(4)', 's(0)', 's(1)', 's(2)' ];
out2 = ['.', '.', '.', '.', '.' ];
out3 = ['.', '.', '.', '.', '.' ];
comm = [true, false, false, true, false ];
gas = [1, 1, 1, 1, 1 ];
sz = [1, 1, 1, 1, 1 ];
stor = [false, true, false, false, false ];
lb = [ 1, 1, 1, 1, 1 ];
ub = [ 7, 7, 7, 7, 7 ];
startstack = [ 'in_0', 'in_1', 'in_2', 'in_3', 'in_4', null, null, null, null, null ];
endstack = [ 's(4)', null, null, null, null, null, null, null, null, null ];
